(set-option :produce-models true)
 (set-logic ALL)
(declare-fun *status () String)
(declare-fun *@ss626 () String )
(declare-fun *@ss6260 () String )
(declare-fun *@sstring626 () String )
(assert (not (not (= (str.len *@ss6260) 3))  ) )
(assert (not (< (str.to_int *@ss6260) 100)  ) )
(assert (not (< (str.len *status) 4)  ) )
(assert (not (not (= *status[3] " "))  ) )
(assert (= *status (str.++  *@ss6260 *@sstring626 )))
(check-sat)
 (get-model)
